SECTION Graph
Nodes 577
Edges 576

E 24 25 5
E 24 205 13
E 205 396 13
E 394 395 5
E 395 396 5
E 396 580 13
E 580 581 5
E 581 582 5
E 582 583 5
E 583 584 5
E 584 585 5
E 585 586 5
E 586 784 13
E 632 633 5
E 632 831 13
E 633 634 5
E 784 785 5
E 785 786 5
E 786 787 5
E 787 788 5
E 788 789 5
E 789 790 5
E 790 978 13
E 791 792 5
E 791 980 13
E 792 793 5
E 793 794 5
E 794 795 5
E 795 796 5
E 831 1016 13
E 947 948 5
E 948 949 5
E 949 950 5
E 950 1138 13
E 953 954 5
E 953 1141 13
E 954 955 5
E 955 956 5
E 956 957 5
E 957 958 5
E 958 959 5
E 959 1147 13
E 978 979 5
E 978 1169 13
E 979 980 5
E 992 993 5
E 992 1181 13
E 1003 1004 5
E 1003 1196 13
E 1004 1005 5
E 1005 1006 5
E 1006 1007 5
E 1007 1008 5
E 1008 1009 5
E 1009 1010 5
E 1010 1011 5
E 1011 1012 5
E 1012 1013 5
E 1013 1014 5
E 1014 1015 5
E 1015 1016 5
E 1016 1017 5
E 1016 1208 13
E 1138 1327 13
E 1141 1331 13
E 1147 1148 5
E 1148 1149 5
E 1149 1339 13
E 1169 1170 5
E 1169 1360 13
E 1170 1171 5
E 1171 1172 5
E 1172 1363 13
E 1181 1376 13
E 1187 1188 5
E 1187 1384 13
E 1188 1189 5
E 1189 1190 5
E 1189 1385 13
E 1190 1191 5
E 1191 1192 5
E 1192 1193 5
E 1193 1194 5
E 1194 1195 5
E 1195 1196 5
E 1208 1209 5
E 1209 1210 5
E 1210 1211 5
E 1211 1407 13
E 1318 1319 5
E 1319 1320 5
E 1320 1321 5
E 1321 1322 5
E 1322 1323 5
E 1323 1324 5
E 1324 1325 5
E 1325 1326 5
E 1326 1327 5
E 1327 1328 5
E 1328 1329 5
E 1329 1330 5
E 1330 1331 5
E 1338 1339 5
E 1338 1534 13
E 1358 1359 5
E 1358 1554 13
E 1359 1360 5
E 1363 1364 5
E 1364 1365 5
E 1365 1366 5
E 1366 1367 5
E 1367 1562 13
E 1368 1369 5
E 1368 1563 13
E 1369 1370 5
E 1370 1371 5
E 1371 1372 5
E 1372 1373 5
E 1373 1374 5
E 1374 1568 13
E 1375 1376 5
E 1375 1569 13
E 1376 1377 5
E 1377 1378 5
E 1378 1379 5
E 1379 1380 5
E 1380 1381 5
E 1381 1382 5
E 1382 1383 5
E 1383 1384 5
E 1385 1386 5
E 1407 1599 13
E 1533 1534 5
E 1533 1726 13
E 1534 1535 5
E 1535 1536 5
E 1536 1537 5
E 1537 1538 5
E 1538 1539 5
E 1539 1540 5
E 1540 1541 5
E 1540 1733 13
E 1541 1542 5
E 1542 1543 5
E 1543 1544 5
E 1544 1545 5
E 1545 1546 5
E 1546 1547 5
E 1547 1548 5
E 1548 1549 5
E 1549 1550 5
E 1550 1551 5
E 1551 1552 5
E 1552 1553 5
E 1553 1554 5
E 1562 1563 5
E 1568 1569 5
E 1568 1758 13
E 1599 1785 13
E 1720 1721 5
E 1720 1913 13
E 1721 1722 5
E 1722 1723 5
E 1723 1724 5
E 1724 1917 13
E 1725 1726 5
E 1725 1918 13
E 1733 1925 13
E 1758 1759 5
E 1759 1760 5
E 1760 1761 5
E 1761 1952 13
E 1785 1981 13
E 1911 1912 5
E 1911 2097 13
E 1912 1913 5
E 1917 1918 5
E 1925 2111 13
E 1981 2161 13
E 2097 2269 13
E 2111 2281 13
E 2161 2340 13
E 2261 2262 5
E 2262 2263 5
E 2263 2264 5
E 2264 2265 5
E 2265 2266 5
E 2266 2267 5
E 2267 2268 5
E 2268 2269 5
E 2269 2446 13
E 2281 2458 13
E 2340 2512 13
E 2458 2459 5
E 2459 2460 5
E 2460 2461 5
E 2461 2462 5
E 2462 2463 5
E 2463 2464 5
E 2464 2650 13
E 2512 2513 5
E 2513 2514 5
E 2514 2515 5
E 2515 2516 5
E 2516 2517 5
E 2517 2518 5
E 2518 2519 5
E 2519 2701 13
E 2650 2651 5
E 2651 2652 5
E 2652 2839 13
E 2701 2702 5
E 2702 2703 5
E 2703 2704 5
E 2704 2705 5
E 2705 2898 13
E 2839 3034 13
E 2898 3088 13
E 3034 3035 5
E 3035 3036 5
E 3088 3284 13
E 3284 3285 5
E 3285 3286 5
E 3286 3287 5
E 3287 3288 5
E 3288 3289 5
E 3289 3290 5
E 3290 3291 5
E 3291 3292 5
E 3292 3293 5
E 3293 3469 13
E 3469 3649 13
E 3649 3834 13
E 3834 4020 13
E 4020 4021 5
E 4021 4193 13
E 4193 4381 13
E 4381 4561 13
E 4561 4562 5
E 4562 4563 5
E 4563 4737 13
E 4737 4903 13
E 4903 5077 13
E 5077 5262 13
E 5262 5451 13
E 5451 5452 5
E 5452 5453 5
E 5453 5636 13
E 5636 5818 13
E 5818 5819 5
E 5819 5979 13
E 5979 6161 13
E 6161 6338 13
E 6338 6339 5
E 6339 6520 13
E 6371 6372 5
E 6371 6555 13
E 6372 6373 5
E 6373 6556 13
E 6520 6703 13
E 6548 6549 5
E 6549 6550 5
E 6550 6551 5
E 6551 6552 5
E 6552 6553 5
E 6553 6554 5
E 6554 6555 5
E 6556 6557 5
E 6557 6558 5
E 6558 6738 13
E 6702 6703 5
E 6702 6890 13
E 6738 6739 5
E 6739 6740 5
E 6740 6741 5
E 6741 6742 5
E 6742 6743 5
E 6743 6930 13
E 6890 7072 13
E 6930 7115 13
E 7043 7044 5
E 7044 7045 5
E 7045 7046 5
E 7046 7047 5
E 7047 7048 5
E 7048 7049 5
E 7049 7050 5
E 7050 7051 5
E 7051 7052 5
E 7052 7053 5
E 7053 7054 5
E 7054 7055 5
E 7055 7056 5
E 7056 7057 5
E 7057 7058 5
E 7058 7059 5
E 7059 7060 5
E 7060 7061 5
E 7061 7062 5
E 7062 7063 5
E 7063 7245 13
E 7072 7252 13
E 7115 7116 5
E 7116 7117 5
E 7117 7118 5
E 7118 7297 13
E 7245 7422 13
E 7250 7251 5
E 7250 7428 13
E 7251 7252 5
E 7297 7470 13
E 7422 7423 5
E 7423 7601 13
E 7428 7608 13
E 7470 7471 5
E 7471 7472 5
E 7472 7473 5
E 7473 7474 5
E 7474 7475 5
E 7475 7476 5
E 7476 7658 13
E 7601 7786 13
E 7608 7793 13
E 7658 7848 13
E 7786 7975 13
E 7793 7978 13
E 7848 8029 13
E 7858 7859 5
E 7859 8034 13
E 7975 8156 13
E 7978 8162 13
E 8029 8210 13
E 8034 8222 13
E 8156 8157 5
E 8157 8158 5
E 8158 8159 5
E 8159 8160 5
E 8160 8161 5
E 8161 8348 13
E 8162 8350 13
E 8209 8210 5
E 8209 8404 13
E 8210 8211 5
E 8211 8212 5
E 8212 8213 5
E 8213 8214 5
E 8214 8215 5
E 8215 8216 5
E 8216 8217 5
E 8217 8218 5
E 8218 8219 5
E 8219 8220 5
E 8220 8221 5
E 8221 8222 5
E 8222 8223 5
E 8223 8413 13
E 8348 8349 5
E 8349 8350 5
E 8350 8351 5
E 8351 8544 13
E 8404 8589 13
E 8413 8414 5
E 8414 8415 5
E 8415 8601 13
E 8544 8545 5
E 8545 8727 13
E 8589 8590 5
E 8601 8602 5
E 8602 8603 5
E 8603 8604 5
E 8604 8785 13
E 8727 8914 13
E 8752 8753 5
E 8752 8939 13
E 8753 8754 5
E 8754 8755 5
E 8755 8756 5
E 8756 8757 5
E 8757 8758 5
E 8758 8759 5
E 8759 8760 5
E 8760 8761 5
E 8761 8948 13
E 8785 8786 5
E 8785 8974 13
E 8914 9093 13
E 8939 9124 13
E 8948 9128 13
E 8974 9158 13
E 9093 9284 13
E 9124 9312 13
E 9128 9319 13
E 9156 9157 5
E 9156 9343 13
E 9157 9158 5
E 9158 9159 5
E 9159 9160 5
E 9160 9161 5
E 9161 9162 5
E 9162 9163 5
E 9163 9164 5
E 9164 9165 5
E 9165 9166 5
E 9166 9167 5
E 9167 9168 5
E 9168 9169 5
E 9169 9170 5
E 9170 9171 5
E 9171 9172 5
E 9172 9173 5
E 9173 9174 5
E 9174 9359 13
E 9284 9285 5
E 9285 9286 5
E 9286 9473 13
E 9309 9310 5
E 9309 9499 13
E 9310 9311 5
E 9311 9312 5
E 9312 9313 5
E 9319 9320 5
E 9320 9321 5
E 9321 9322 5
E 9322 9323 5
E 9323 9512 13
E 9327 9328 5
E 9327 9519 13
E 9328 9329 5
E 9329 9330 5
E 9330 9331 5
E 9331 9332 5
E 9332 9333 5
E 9333 9334 5
E 9334 9335 5
E 9335 9336 5
E 9336 9524 13
E 9343 9534 13
E 9359 9547 13
E 9473 9474 5
E 9474 9475 5
E 9475 9476 5
E 9476 9477 5
E 9477 9478 5
E 9478 9479 5
E 9479 9480 5
E 9480 9481 5
E 9481 9482 5
E 9482 9483 5
E 9483 9484 5
E 9484 9485 5
E 9485 9662 13
E 9499 9674 13
E 9512 9513 5
E 9513 9514 5
E 9514 9515 5
E 9515 9516 5
E 9516 9517 5
E 9517 9518 5
E 9518 9519 5
E 9524 9525 5
E 9525 9526 5
E 9526 9527 5
E 9527 9699 13
E 9534 9703 13
E 9547 9720 13
E 9662 9663 5
E 9663 9664 5
E 9664 9835 13
E 9667 9668 5
E 9667 9841 13
E 9668 9669 5
E 9669 9670 5
E 9670 9671 5
E 9671 9672 5
E 9672 9673 5
E 9673 9674 5
E 9699 9700 5
E 9700 9701 5
E 9701 9702 5
E 9702 9878 13
E 9703 9882 13
E 9715 9716 5
E 9716 9717 5
E 9717 9718 5
E 9718 9719 5
E 9718 9894 13
E 9719 9720 5
E 9835 9836 5
E 9836 9837 5
E 9837 9838 5
E 9838 9839 5
E 9839 9840 5
E 9840 9841 5
E 9878 9879 5
E 9878 10062 13
E 9879 9880 5
E 9880 9881 5
E 9881 9882 5
E 9894 9895 5
E 9895 9896 5
E 9896 9897 5
E 9896 10081 13
E 9897 9898 5
E 9898 9899 5
E 10062 10241 13
E 10081 10262 13
E 10241 10434 13
E 10257 10258 5
E 10257 10447 13
E 10258 10259 5
E 10259 10260 5
E 10260 10261 5
E 10261 10262 5
E 10262 10263 5
E 10263 10264 5
E 10264 10265 5
E 10265 10454 13
E 10424 10425 5
E 10424 10609 13
E 10425 10426 5
E 10426 10427 5
E 10427 10428 5
E 10428 10429 5
E 10429 10430 5
E 10430 10431 5
E 10431 10432 5
E 10432 10433 5
E 10433 10434 5
E 10447 10634 13
E 10454 10639 13
E 10604 10605 5
E 10604 10781 13
E 10605 10606 5
E 10606 10607 5
E 10607 10608 5
E 10608 10609 5
E 10630 10631 5
E 10630 10804 13
E 10631 10632 5
E 10632 10633 5
E 10633 10634 5
E 10639 10814 13
E 10765 10766 5
E 10766 10767 5
E 10767 10768 5
E 10768 10769 5
E 10769 10770 5
E 10770 10771 5
E 10771 10772 5
E 10772 10773 5
E 10773 10774 5
E 10774 10775 5
E 10775 10776 5
E 10776 10777 5
E 10777 10778 5
E 10778 10953 13
E 10781 10959 13
E 10802 10803 5
E 10802 10976 13
E 10803 10804 5
E 10814 10989 13
E 10953 10954 5
E 10954 10955 5
E 10955 10956 5
E 10956 10957 5
E 10957 10958 5
E 10958 10959 5
E 10976 11157 13
E 10989 11169 13
E 11153 11154 5
E 11154 11155 5
E 11155 11156 5
E 11156 11157 5
E 11169 11346 13
E 11346 11539 13
E 11539 11540 5
END
SECTION Terminals
T 25
T 394
T 580
T 584
T 634
T 792
T 796
T 947
T 954
T 979
T 993
T 1006
T 1011
T 1017
T 1147
T 1170
T 1190
T 1209
T 1318
T 1327
T 1365
T 1386
T 1534
T 1538
T 1548
T 1563
T 1569
T 1721
T 1759
T 1917
T 1952
T 2261
T 2446
T 2458
T 2703
T 3036
T 3293
T 6339
T 6548
T 6739
T 7043
T 7471
T 7858
T 8157
T 8211
T 8219
T 8351
T 8590
T 8755
T 8761
T 8786
T 9159
T 9174
T 9313
T 9482
T 9516
T 9525
T 9715
T 9838
T 9879
T 9899
T 10263
T 10428
T 10630
T 10765
T 10954
T 11153
T 11540
END
SECTION Cost
4184
END
